projected/problems_b25_r0_d7_m100_s666/_DIMACS/b25_d7_r0_s666_033.cnf
p cnf 310 621 24
c p show 1 2 3 4 5 6 7 8 9 10 11 12 13 14 15 16 17 18 19 20 21 22 23 24
-73 21 -18 0
-74 10 0
-74 -6 0
-75 74 0
-75 73 0
-76 -10 6 0
-77 -21 0
-77 18 0
-78 77 0
-78 76 0
-79 78 75 0
-80 -21 0
-80 24 0
-81 19 0
-81 -5 0
-82 81 0
-82 80 0
-83 82 0
-83 79 0
-84 -14 -21 0
-85 -23 -19 0
-86 85 84 0
-87 2 0
-87 16 0
-88 -14 -8 0
-89 88 0
-89 87 0
-90 89 86 0
-91 90 0
-91 83 0
-92 23 15 0
-93 -22 10 0
-94 93 0
-94 92 0
-95 2 9 0
-96 -2 0
-96 14 0
-97 96 0
-97 95 0
-98 97 0
-98 94 0
-99 -19 0
-99 -9 0
-100 -12 13 0
-101 100 0
-101 99 0
-102 -6 0
-102 22 0
-103 6 0
-103 7 0
-104 103 0
-104 102 0
-105 104 101 0
-106 105 98 0
-107 106 91 0
-108 -3 0
-108 19 0
-109 -13 0
-109 -23 0
-110 109 0
-110 108 0
-111 -5 0
-111 10 0
-112 -24 -23 0
-113 112 0
-113 111 0
-114 113 110 0
-115 1 0
-115 16 0
-116 5 0
-116 -21 0
-117 116 0
-117 115 0
-118 11 20 0
-119 -15 0
-119 17 0
-120 119 0
-120 118 0
-121 120 0
-121 117 0
-122 121 114 0
-123 -14 0
-123 -15 0
-124 -6 0
-124 3 0
-125 124 123 0
-126 9 0
-126 12 0
-127 -3 3 0
-128 127 0
-128 126 0
-129 128 125 0
-130 -1 3 0
-131 17 -8 0
-132 8 -17 0
-133 132 0
-133 131 0
-134 133 130 0
-135 -17 0
-135 -2 0
-136 -23 -3 0
-137 3 23 0
-138 137 0
-138 136 0
-139 138 0
-139 135 0
-140 139 0
-140 134 0
-141 140 0
-141 129 0
-142 141 122 0
-143 142 0
-143 107 0
-144 3 -19 0
-145 13 23 0
-146 145 144 0
-147 5 -10 0
-148 24 0
-148 23 0
-149 148 147 0
-150 149 0
-150 146 0
-151 -1 -16 0
-152 -5 21 0
-153 152 151 0
-154 -11 0
-154 -20 0
-155 15 -17 0
-156 155 154 0
-157 156 153 0
-158 157 0
-158 150 0
-159 14 15 0
-160 6 -3 0
-161 160 0
-161 159 0
-162 -9 -12 0
-163 3 0
-163 -3 0
-164 163 162 0
-165 164 0
-165 161 0
-166 1 0
-166 -3 0
-167 -17 0
-167 8 0
-168 -8 0
-168 17 0
-169 168 167 0
-170 169 0
-170 166 0
-171 17 2 0
-172 23 0
-172 3 0
-173 -3 0
-173 -23 0
-174 173 172 0
-175 174 171 0
-176 175 170 0
-177 176 165 0
-178 177 0
-178 158 0
-179 76 77 0
-180 73 74 0
-181 180 0
-181 179 0
-182 21 -24 0
-183 -19 5 0
-184 183 182 0
-185 184 181 0
-186 14 0
-186 21 0
-187 23 0
-187 19 0
-188 187 0
-188 186 0
-189 -2 -16 0
-190 14 0
-190 8 0
-191 190 189 0
-192 191 0
-192 188 0
-193 192 185 0
-194 -23 0
-194 -15 0
-195 22 0
-195 -10 0
-196 195 194 0
-197 -2 0
-197 -9 0
-198 2 -14 0
-199 198 197 0
-200 199 196 0
-201 19 9 0
-202 12 0
-202 -13 0
-203 202 201 0
-204 6 -22 0
-205 -6 -7 0
-206 205 204 0
-207 206 0
-207 203 0
-208 207 0
-208 200 0
-209 208 0
-209 193 0
-210 209 0
-210 178 0
-211 210 143 0
-212 -7 0
-212 -6 0
-213 -18 3 0
-214 -3 18 0
-215 214 0
-215 213 0
-216 215 0
-216 212 0
-217 8 11 0
-218 12 6 0
-219 218 217 0
-220 219 0
-220 216 0
-221 -12 0
-221 2 0
-222 14 0
-222 -13 0
-223 222 0
-223 221 0
-224 22 0
-224 14 0
-225 -4 0
-225 19 0
-226 -19 0
-226 4 0
-227 226 225 0
-228 227 0
-228 224 0
-229 228 223 0
-230 229 220 0
-231 7 0
-231 -9 0
-232 16 0
-232 -7 0
-233 232 0
-233 231 0
-234 7 0
-234 15 0
-235 -2 -4 0
-236 235 0
-236 234 0
-237 236 0
-237 233 0
-238 14 0
-238 -12 0
-239 12 1 0
-240 239 238 0
-241 -18 0
-241 -10 0
-242 -12 -15 0
-243 242 241 0
-244 12 0
-244 15 0
-245 18 10 0
-246 245 244 0
-247 246 0
-247 243 0
-248 247 0
-248 240 0
-249 248 237 0
-250 249 230 0
-251 2 0
-251 13 0
-252 -21 0
-252 -23 0
-253 23 0
-253 21 0
-254 253 252 0
-255 254 0
-255 251 0
-256 5 0
-256 22 0
-257 2 -12 0
-258 257 256 0
-259 258 255 0
-260 8 -18 0
-261 -23 0
-261 -9 0
-262 261 260 0
-263 -11 1 0
-264 -6 0
-264 14 0
-265 264 0
-265 263 0
-266 265 0
-266 262 0
-267 266 0
-267 259 0
-268 -12 0
-268 12 0
-269 -16 0
-269 20 0
-270 269 0
-270 268 0
-271 -12 2 0
-272 3 0
-272 -4 0
-273 272 271 0
-274 273 270 0
-275 1 0
-275 15 0
-276 4 18 0
-277 276 0
-277 275 0
-278 24 3 0
-279 3 0
-279 20 0
-280 279 278 0
-281 280 0
-281 277 0
-282 281 0
-282 274 0
-283 282 267 0
-284 283 250 0
-285 284 211 0
-286 7 6 0
-287 18 0
-287 -3 0
-288 3 0
-288 -18 0
-289 288 287 0
-290 289 286 0
-291 -8 0
-291 -11 0
-292 -12 0
-292 -6 0
-293 292 0
-293 291 0
-294 293 290 0
-295 12 -2 0
-296 -14 13 0
-297 296 295 0
-298 -22 -14 0
-299 4 -19 0
-300 19 -4 0
-301 300 0
-301 299 0
-302 301 298 0
-303 302 0
-303 297 0
-304 303 0
-304 294 0
-305 -7 9 0
-306 -16 7 0
-307 306 305 0
-308 -7 -15 0
-309 2 0
-309 4 0
-310 309 308 0
-25 310 307 0
-26 -14 12 0
-66 -12 0
-66 -1 0
-67 66 0
-67 26 0
-68 244 0
-68 245 0
-69 241 0
-69 242 0
-27 69 68 0
-70 27 67 0
-71 70 0
-71 25 0
-72 71 0
-72 304 0
-28 -2 -13 0
-29 21 23 0
-30 -23 -21 0
-31 30 0
-31 29 0
-32 31 28 0
-33 -5 -22 0
-34 -2 0
-34 12 0
-35 34 0
-35 33 0
-36 35 0
-36 32 0
-37 -8 0
-37 18 0
-38 23 9 0
-39 38 0
-39 37 0
-40 11 0
-40 -1 0
-41 6 -14 0
-42 41 40 0
-43 42 39 0
-44 43 36 0
-45 12 -12 0
-46 16 -20 0
-47 46 45 0
-48 12 0
-48 -2 0
-49 -3 4 0
-50 49 0
-50 48 0
-51 50 0
-51 47 0
-52 -1 -15 0
-53 -4 0
-53 -18 0
-54 53 52 0
-55 -24 0
-55 -3 0
-56 -3 -20 0
-57 56 0
-57 55 0
-58 57 54 0
-59 58 51 0
-60 59 0
-60 44 0
-61 60 0
-61 72 0
-62 178 209 0
-63 107 142 0
-64 63 0
-64 62 0
-65 64 61 0
65 0
285 0
-286 -212 0
-212 -286 0
-215 -289 0
-216 -290 0
-290 -216 0
-217 -291 0
-291 -217 0
-218 -292 0
-292 -218 0
-293 -219 0
-294 -220 0
-295 -221 0
-221 -295 0
-222 -296 0
-223 -297 0
-224 -298 0
-298 -224 0
-301 -227 0
-302 -228 0
-228 -302 0
-229 -303 0
-303 -229 0
-304 -230 0
-230 -304 0
-305 -231 0
-231 -305 0
-232 -306 0
-233 -307 0
-307 -233 0
-308 -234 0
-235 -309 0
-309 -235 0
-310 -236 0
-25 -237 0
-237 -25 0
-26 -238 0
-239 -66 0
-66 -239 0
-67 -240 0
-240 -67 0
-244 -242 0
-241 -245 0
-247 -27 0
-248 -70 0
-249 -71 0
-250 -72 0
-251 -28 0
-28 -251 0
-31 -254 0
-32 -255 0
-255 -32 0
-256 -33 0
-34 -257 0
-257 -34 0
-258 -35 0
-259 -36 0
-260 -37 0
-261 -38 0
-262 -39 0
-39 -262 0
-40 -263 0
-263 -40 0
-41 -264 0
-264 -41 0
-265 -42 0
-42 -265 0
-43 -266 0
-266 -43 0
-267 -44 0
-44 -267 0
-268 -45 0
-45 -268 0
-46 -269 0
-47 -270 0
-270 -47 0
-271 -48 0
-48 -271 0
-49 -272 0
-50 -273 0
-273 -50 0
-274 -51 0
-51 -274 0
-275 -52 0
-53 -276 0
-276 -53 0
-277 -54 0
-54 -277 0
-278 -55 0
-55 -278 0
-279 -56 0
-56 -279 0
-57 -280 0
-58 -281 0
-59 -282 0
-60 -283 0
-283 -60 0
-284 -61 0
-61 -284 0
-108 -144 0
-109 -145 0
-110 -146 0
-146 -110 0
-111 -147 0
-147 -111 0
-112 -148 0
-148 -112 0
-149 -113 0
-150 -114 0
-114 -150 0
-151 -115 0
-152 -116 0
-153 -117 0
-118 -154 0
-155 -119 0
-119 -155 0
-120 -156 0
-156 -120 0
-157 -121 0
-121 -157 0
-122 -158 0
-123 -159 0
-124 -160 0
-125 -161 0
-161 -125 0
-162 -126 0
-127 -163 0
-163 -127 0
-164 -128 0
-165 -129 0
-129 -165 0
-130 -166 0
-166 -130 0
-133 -169 0
-169 -133 0
-170 -134 0
-134 -170 0
-171 -135 0
-138 -174 0
-174 -138 0
-175 -139 0
-139 -175 0
-140 -176 0
-141 -177 0
-142 -178 0
-76 -74 0
-74 -76 0
-73 -77 0
-77 -73 0
-181 -79 0
-80 -182 0
-81 -183 0
-82 -184 0
-184 -82 0
-185 -83 0
-83 -185 0
-186 -84 0
-85 -187 0
-187 -85 0
-188 -86 0
-189 -87 0
-87 -189 0
-88 -190 0
-89 -191 0
-191 -89 0
-192 -90 0
-90 -192 0
-91 -193 0
-194 -92 0
-195 -93 0
-196 -94 0
-197 -95 0
-96 -198 0
-198 -96 0
-199 -97 0
-200 -98 0
-98 -200 0
-201 -99 0
-99 -201 0
-202 -100 0
-100 -202 0
-101 -203 0
-102 -204 0
-205 -103 0
-103 -205 0
-104 -206 0
-105 -207 0
-106 -208 0
-107 -209 0
-209 -107 0
-64 -211 0
-211 -64 0
