projected/problems_b25_r0_d7_m100_s666/b25_d7_r0_s666_033.smt2
(set-logic QF_UF)
(declare-fun A0 () Bool)
(declare-fun A2 () Bool)
(declare-fun A3 () Bool)
(declare-fun A4 () Bool)
(declare-fun A5 () Bool)
(declare-fun A6 () Bool)
(declare-fun A7 () Bool)
(declare-fun A8 () Bool)
(declare-fun A9 () Bool)
(declare-fun A10 () Bool)
(declare-fun A11 () Bool)
(declare-fun A12 () Bool)
(declare-fun A13 () Bool)
(declare-fun A14 () Bool)
(declare-fun A15 () Bool)
(declare-fun A16 () Bool)
(declare-fun A17 () Bool)
(declare-fun A18 () Bool)
(declare-fun A19 () Bool)
(declare-fun A20 () Bool)
(declare-fun A21 () Bool)
(declare-fun A22 () Bool)
(declare-fun A23 () Bool)
(declare-fun A24 () Bool)
(assert (let ((.def_0 (or A7 A6))) (let ((.def_1 (not .def_0))) (let ((.def_2 (= A3 A18))) (let ((.def_3 (and .def_2 .def_1))) (let ((.def_4 (not .def_3))) (let ((.def_5 (or A8 A11))) (let ((.def_6 (not .def_5))) (let ((.def_7 (or A12 A6))) (let ((.def_8 (not .def_7))) (let ((.def_9 (and .def_8 .def_6))) (let ((.def_10 (or .def_9 .def_4))) (let ((.def_11 (not A2))) (let ((.def_12 (or A12 .def_11))) (let ((.def_13 (not .def_12))) (let ((.def_14 (not A13))) (let ((.def_15 (and A14 .def_14))) (let ((.def_16 (and .def_15 .def_13))) (let ((.def_17 (and A22 A14))) (let ((.def_18 (not .def_17))) (let ((.def_19 (not A4))) (let ((.def_20 (not A19))) (let ((.def_21 (= .def_20 .def_19))) (let ((.def_22 (or .def_21 .def_18))) (let ((.def_23 (not .def_22))) (let ((.def_24 (or .def_23 .def_16))) (let ((.def_25 (not .def_24))) (let ((.def_26 (and .def_25 .def_10))) (let ((.def_27 (not .def_26))) (let ((.def_28 (not A7))) (let ((.def_29 (or .def_28 A9))) (let ((.def_30 (not .def_29))) (let ((.def_31 (and A16 .def_28))) (let ((.def_32 (and .def_31 .def_30))) (let ((.def_33 (not .def_32))) (let ((.def_34 (not A15))) (let ((.def_35 (or .def_28 .def_34))) (let ((.def_36 (or .def_11 .def_19))) (let ((.def_37 (not .def_36))) (let ((.def_38 (or .def_37 .def_35))) (let ((.def_39 (or .def_38 .def_33))) (let ((.def_40 (not .def_39))) (let ((.def_41 (not A14))) (let ((.def_42 (or .def_41 A12))) (let ((.def_43 (or A12 A0))) (let ((.def_44 (not .def_43))) (let ((.def_45 (and .def_44 .def_42))) (let ((.def_46 (not .def_45))) (let ((.def_47 (and A12 A15))) (let ((.def_48 (not A10))) (let ((.def_49 (not A18))) (let ((.def_50 (and .def_49 .def_48))) (let ((.def_51 (= .def_50 .def_47))) (let ((.def_52 (and .def_51 .def_46))) (let ((.def_53 (or .def_52 .def_40))) (let ((.def_54 (or .def_53 .def_27))) (let ((.def_55 (and A2 A13))) (let ((.def_56 (not .def_55))) (let ((.def_57 (not A21))) (let ((.def_58 (= A23 .def_57))) (let ((.def_59 (or .def_58 .def_56))) (let ((.def_60 (not .def_59))) (let ((.def_61 (and A5 A22))) (let ((.def_62 (and .def_11 A12))) (let ((.def_63 (not .def_62))) (let ((.def_64 (or .def_63 .def_61))) (let ((.def_65 (or .def_64 .def_60))) (let ((.def_66 (or A8 .def_49))) (let ((.def_67 (not A9))) (let ((.def_68 (not A23))) (let ((.def_69 (and .def_68 .def_67))) (let ((.def_70 (or .def_69 .def_66))) (let ((.def_71 (not .def_70))) (let ((.def_72 (not A0))) (let ((.def_73 (and A11 .def_72))) (let ((.def_74 (not .def_73))) (let ((.def_75 (or A6 .def_41))) (let ((.def_76 (not .def_75))) (let ((.def_77 (and .def_76 .def_74))) (let ((.def_78 (not .def_77))) (let ((.def_79 (or .def_78 .def_71))) (let ((.def_80 (not .def_79))) (let ((.def_81 (and .def_80 .def_65))) (let ((.def_82 (not .def_81))) (let ((.def_83 (not A12))) (let ((.def_84 (and .def_83 A12))) (let ((.def_85 (not .def_84))) (let ((.def_86 (not A20))) (let ((.def_87 (or A16 .def_86))) (let ((.def_88 (or .def_87 .def_85))) (let ((.def_89 (not .def_88))) (let ((.def_90 (or .def_83 A2))) (let ((.def_91 (not .def_90))) (let ((.def_92 (not A3))) (let ((.def_93 (or .def_92 A4))) (let ((.def_94 (and .def_93 .def_91))) (let ((.def_95 (not .def_94))) (let ((.def_96 (or .def_95 .def_89))) (let ((.def_97 (not .def_96))) (let ((.def_98 (and A0 A15))) (let ((.def_99 (and .def_19 .def_49))) (let ((.def_100 (not .def_99))) (let ((.def_101 (and .def_100 .def_98))) (let ((.def_102 (not .def_101))) (let ((.def_103 (or A24 A3))) (let ((.def_104 (not .def_103))) (let ((.def_105 (and A3 A20))) (let ((.def_106 (not .def_105))) (let ((.def_107 (and .def_106 .def_104))) (let ((.def_108 (or .def_107 .def_102))) (let ((.def_109 (or .def_108 .def_97))) (let ((.def_110 (and .def_109 .def_82))) (let ((.def_111 (not .def_110))) (let ((.def_112 (or .def_111 .def_54))) (let ((.def_113 (not .def_112))) (let ((.def_114 (and .def_92 A19))) (let ((.def_115 (and .def_14 .def_68))) (let ((.def_116 (and .def_115 .def_114))) (let ((.def_117 (not .def_116))) (let ((.def_118 (not A5))) (let ((.def_119 (and .def_118 A10))) (let ((.def_120 (not .def_119))) (let ((.def_121 (not A24))) (let ((.def_122 (or .def_121 .def_68))) (let ((.def_123 (not .def_122))) (let ((.def_124 (or .def_123 .def_120))) (let ((.def_125 (and .def_124 .def_117))) (let ((.def_126 (not .def_125))) (let ((.def_127 (not A16))) (let ((.def_128 (or .def_72 .def_127))) (let ((.def_129 (or .def_118 A21))) (let ((.def_130 (or .def_129 .def_128))) (let ((.def_131 (or A11 A20))) (let ((.def_132 (not A17))) (let ((.def_133 (or A15 .def_132))) (let ((.def_134 (not .def_133))) (let ((.def_135 (and .def_134 .def_131))) (let ((.def_136 (not .def_135))) (let ((.def_137 (or .def_136 .def_130))) (let ((.def_138 (not .def_137))) (let ((.def_139 (or .def_138 .def_126))) (let ((.def_140 (and .def_41 .def_34))) (let ((.def_141 (not A6))) (let ((.def_142 (and .def_141 A3))) (let ((.def_143 (or .def_142 .def_140))) (let ((.def_144 (not .def_143))) (let ((.def_145 (or .def_67 .def_83))) (let ((.def_146 (or .def_92 A3))) (let ((.def_147 (not .def_146))) (let ((.def_148 (or .def_147 .def_145))) (let ((.def_149 (and .def_148 .def_144))) (let ((.def_150 (not .def_149))) (let ((.def_151 (or .def_72 A3))) (let ((.def_152 (not .def_151))) (let ((.def_153 (not A8))) (let ((.def_154 (= .def_153 .def_132))) (let ((.def_155 (not .def_154))) (let ((.def_156 (and .def_155 .def_152))) (let ((.def_157 (not .def_156))) (let ((.def_158 (or A17 A2))) (let ((.def_159 (= .def_92 A23))) (let ((.def_160 (not .def_159))) (let ((.def_161 (or .def_160 .def_158))) (let ((.def_162 (not .def_161))) (let ((.def_163 (and .def_162 .def_157))) (let ((.def_164 (and .def_163 .def_150))) (let ((.def_165 (or .def_164 .def_139))) (let ((.def_166 (or .def_48 A6))) (let ((.def_167 (not .def_166))) (let ((.def_168 (or A21 .def_49))) (let ((.def_169 (not .def_168))) (let ((.def_170 (= .def_169 .def_167))) (let ((.def_171 (and .def_57 A24))) (let ((.def_172 (and A19 .def_118))) (let ((.def_173 (and .def_172 .def_171))) (let ((.def_174 (not .def_173))) (let ((.def_175 (or .def_174 .def_170))) (let ((.def_176 (not .def_175))) (let ((.def_177 (and A14 A21))) (let ((.def_178 (or .def_68 .def_20))) (let ((.def_179 (not .def_178))) (let ((.def_180 (and .def_179 .def_177))) (let ((.def_181 (or .def_11 .def_127))) (let ((.def_182 (not .def_181))) (let ((.def_183 (or .def_41 .def_153))) (let ((.def_184 (and .def_183 .def_182))) (let ((.def_185 (not .def_184))) (let ((.def_186 (and .def_185 .def_180))) (let ((.def_187 (not .def_186))) (let ((.def_188 (and .def_187 .def_176))) (let ((.def_189 (and .def_68 .def_34))) (let ((.def_190 (and A22 .def_48))) (let ((.def_191 (or .def_190 .def_189))) (let ((.def_192 (and .def_11 .def_67))) (let ((.def_193 (and .def_11 A14))) (let ((.def_194 (not .def_193))) (let ((.def_195 (or .def_194 .def_192))) (let ((.def_196 (or .def_195 .def_191))) (let ((.def_197 (not .def_196))) (let ((.def_198 (or A19 A9))) (let ((.def_199 (not .def_198))) (let ((.def_200 (and A12 .def_14))) (let ((.def_201 (not .def_200))) (let ((.def_202 (and .def_201 .def_199))) (let ((.def_203 (and .def_141 A22))) (let ((.def_204 (or .def_141 .def_28))) (let ((.def_205 (not .def_204))) (let ((.def_206 (and .def_205 .def_203))) (let ((.def_207 (or .def_206 .def_202))) (let ((.def_208 (or .def_207 .def_197))) (let ((.def_209 (or .def_208 .def_188))) (let ((.def_210 (not .def_209))) (let ((.def_211 (= .def_210 .def_165))) (let ((.def_212 (not .def_211))) (let ((.def_213 (= .def_212 .def_113))) .def_213)))))))))))))))))))))))))))))))))))))))))))))))))))))))))))))))))))))))))))))))))))))))))))))))))))))))))))))))))))))))))))))))))))))))))))))))))))))))))))))))))))))))))))))))))))))))))))))))))))))))))))))))))))))))
(check-sat)
